results/res_prop_muc/res_Cimatti_mathsat_cores/QF_LIA/ckt_PROP2_tf_10.smt.smt2.res
unsat
( c103
  c113
  c116
  c124
  c125
  c128
  c129
  c131
  c133
  c136
  c137
  c138
  c139
  c140
  c141
  c144
  c20
  c26
  c32
  c41
  c51
  c6
  c62
  c63
  c66
  c75
  c82
  c9
  c94 )
